solution status: optimal solution found
objective value:                                 3637
C1006                                               1 	(obj:0)
C1018                                               1 	(obj:0)
C1020                                               1 	(obj:0)
C1025                                               1 	(obj:45)
C1026                                               1 	(obj:30)
C1028                                               1 	(obj:0)
C1034                                               1 	(obj:235)
C1035                                               1 	(obj:157)
C1043                                               1 	(obj:26)
C1048                                               1 	(obj:0)
C1063                                               1 	(obj:25)
C1069                                               1 	(obj:67)
C1076                                               1 	(obj:25)
C1085                                               1 	(obj:0)
C1092                                               1 	(obj:10)
C1097                                               1 	(obj:0)
C1099                                               1 	(obj:0)
C1107                                               1 	(obj:0)
C1116                                               1 	(obj:0)
C1121                                               1 	(obj:541)
C1127                                               1 	(obj:0)
C1130                                               1 	(obj:94)
C1166                                               1 	(obj:0)
C1178                                               1 	(obj:0)
C1183                                               1 	(obj:17)
C1201                                               1 	(obj:42)
C1202                                               1 	(obj:28)
C1204                                               1 	(obj:0)
C1210                                               1 	(obj:7)
C1215                                               1 	(obj:99)
C1216                                               1 	(obj:22)
C1219                                               1 	(obj:6)
C1223                                               1 	(obj:0)
C1227                                               1 	(obj:59)
C1235                                               1 	(obj:0)
C1240                                               1 	(obj:39)
C1247                                               1 	(obj:0)
C1261                                               1 	(obj:0)
C1275                                               1 	(obj:0)
C1288                                               1 	(obj:0)
C1302                                               1 	(obj:0)
C1306                                               1 	(obj:291)
C1307                                               1 	(obj:109)
C1315                                               1 	(obj:0)
C1318                                               1 	(obj:92)
C1319                                               1 	(obj:80)
C1328                                               1 	(obj:46)
C1333                                               1 	(obj:27)
C1341                                               1 	(obj:0)
C1348                                               1 	(obj:336)
C1350                                               1 	(obj:0)
C1355                                               1 	(obj:84)
C1359                                               1 	(obj:187)
C1360                                               1 	(obj:0)
C1398                                               1 	(obj:0)
C1402                                               1 	(obj:225)
C1403                                               1 	(obj:75)
C1411                                               1 	(obj:0)
C1418                                               1 	(obj:26)
C1419                                               1 	(obj:10)
C1424                                               1 	(obj:0)
C1428                                               1 	(obj:86)
C1429                                               1 	(obj:29)
C1431                                               1 	(obj:24)
C1438                                               1 	(obj:6)
C1440                                               1 	(obj:0)
C1445                                               1 	(obj:19)
C1473                                               1 	(obj:0)
C1477                                               1 	(obj:45)
C1478                                               1 	(obj:15)
C1481                                               1 	(obj:0)
C1489                                               1 	(obj:0)
C1492                                               1 	(obj:151)
C1495                                               1 	(obj:100)
C1501                                               1 	(obj:0)
C1504                                               1 	(obj:0)
C1509                                               1 	(obj:0)
C1510                                               1 	(obj:0)
C1511                                               1 	(obj:0)
C1512                                               1 	(obj:0)
C1513                                               1 	(obj:0)
C1516                                               1 	(obj:0)
C1518                                               1 	(obj:0)
C1519                                               1 	(obj:0)
C1522                                               1 	(obj:0)
C1523                                               1 	(obj:0)
C1524                                               1 	(obj:0)
C1526                                               1 	(obj:0)
C1527                                               1 	(obj:0)
C1528                                               1 	(obj:0)
C1529                                               1 	(obj:0)
C1530                                               1 	(obj:0)
C1531                                               1 	(obj:0)
C1533                                               1 	(obj:0)
C1534                                               1 	(obj:0)
C1538                                               1 	(obj:0)
C1539                                               1 	(obj:0)
C1540                                               1 	(obj:0)
C1542                                               1 	(obj:0)
C1546                                               1 	(obj:0)
C1548                                               1 	(obj:0)
